
Gurobi 9.5.1 (linux64) logging started Tue 16 Aug 2022 04:32:41 PM MST

Set parameter LogFile to value "/home/local/ASUAD/kmajd1/NNRepLayer_v2/demos/walking_example/global_constraint_upper_10/repair_net/logs/opt_log_multi_26.log"
Gurobi Optimizer version 9.5.1 build v9.5.1rc2 (linux64)
Thread count: 48 physical cores, 96 logical processors, using up to 45 threads
Optimize a model with 16863 rows, 10742 columns and 150015 nonzeros
Model fingerprint: 0x61a179ca
Model has 149 quadratic objective terms
Variable types: 5974 continuous, 4768 integer (4768 binary)
Coefficient statistics:
  Matrix range     [4e-04, 2e+02]
  Objective range  [5e-04, 1e+00]
  QObjective range [1e-02, 1e-02]
  Bounds range     [1e+00, 2e+03]
  RHS range        [1e-04, 2e+02]

Concurrent MIP optimizer: 3 concurrent instances (15 threads per instance)

Presolve removed 554 rows and 128 columns
Presolve time: 0.23s
Presolved: 16309 rows, 10614 columns, 149205 nonzeros
Presolved model has 149 quadratic objective terms
Variable types: 5846 continuous, 4768 integer (4768 binary)
Root relaxation presolve removed 4768 rows and 4768 columns
Root relaxation presolved: 11541 rows, 5846 columns, 134901 nonzeros
Root relaxation presolved model has 149 quadratic objective terms


Root relaxation: objective 3.030159e+01, 6755 iterations, 0.24 seconds (0.35 work units)

    Nodes    |    Current Node    |     Objective Bounds      |     Work
 Expl Unexpl |  Obj  Depth IntInf | Incumbent    BestBd   Gap | It/Node Time

     0     0      -    -    -      185.91040   30.30159  83.7%     -    1s
     0     0      -    -    -      182.32028   30.30159  83.4%     -    3s
     0     2      -    -    -      182.32028   30.30159  83.4%     -    6s
    30    46      -    -    -      182.25213   30.30159  83.4%     -   15s
    45    61      -    -    -       93.07436   30.30159  67.4%     -   29s
    75   100      -    -    -       93.07436   30.30159  67.4%     -   30s
    99   115      -    -    -       45.40425   30.30159  33.3%     -   44s
   143   167      -    -    -       38.06813   30.30159  20.4%     -   47s
  1109  1125      -    -    -       36.01066   30.30159  15.9%     -   55s
  3184  3361      -    -    -       36.01066   30.30159  15.9%     -   60s
  4580  4815      -    -    -       35.23983   30.30159  14.0%     -   65s
  6576  6924      -    -    -       35.02146   30.30159  13.5%     -   70s
  8886  9249      -    -    -       35.02146   30.30159  13.5%     -   75s
 10080 10081      -    -    -       35.02146   30.30159  13.5%     -   90s
 10082  9099      -    -    -       35.02146   30.30159  13.5%     -   95s
 10084  8645      -    -    -       34.94443   30.30159  13.3%     -  104s
 10087  8652      -    -    -       34.94443   30.30159  13.3%     -  106s
 10114  8249      -    -    -       34.57187   30.30159  12.4%     -  158s
 10185  7495      -    -    -       34.57187   30.30159  12.4%     -  175s
 11246  6827      -    -    -       34.51237   30.30159  12.2%     -  196s

Resetting heuristic parameters to focus on improving solution
(using Heuristics=0.5 and RINS=10)...

 11261  5717      -    -    -       34.23456   30.30159  11.5%     -  213s
 11276  5952      -    -    -       34.23456   30.30159  11.5%     -  215s
 11516  4584      -    -    -       34.16534   30.30159  11.3%     -  231s
 11531  3776      -    -    -       34.08371   30.30159  11.1%     -  257s

Instance 1 was solved

Explored 21018 nodes (2610197 simplex iterations) in 258.86 seconds (572.20 work units)
Thread count was 15 (of 96 available processors)

Solution count 10: 34.0355 34.0613 34.0619 ... 34.1503 

Optimal solution found (tolerance 1.10e-01)
Best objective 3.403546759943e+01, best bound 3.030158670427e+01, gap 10.9706%
